17	4
14	30	13	17	
0	0	0	0	0	3	2	3	4	
1	8	0	0	0	3	5	6	7	
3	0	0	0	6	2	13	17	
4	0	10	0	0	2	9	11	
7	4	0	0	0	3	10	15	17	
100	0	0	0	8	1	8	
75	2	0	0	0	1	17	
25	10	0	0	0	2	12	16	
50	0	0	0	9	1	13	
250	0	3	0	0	1	17	
200	0	1	0	0	2	12	15	
100	0	9	0	0	1	17	
8	0	8	0	0	1	14	
1	0	5	0	0	1	17	
3	0	0	0	8	1	17	
1	0	0	8	0	2	17	17	
0	0	0	0	0	0	
